100
128
2
15
41
6
40
8
8
58
58
52
52
32
36
5
54
28
58
19
9
49
22
6
1
13
46
30
61
8
49
18
40
1
17
33
58
38
55
1
15
6
14
7
50
29
10
16
9
41
52
43
44
39
2
3
19
12
21
16
20
47
48
13
12
30
27
10
12
15
11
38
31
2
52
59
17
28
51
35
21
22
38
19
52
49
30
23
14
23
60
38
34
29
40
54
24
27
45
60
32
64